15 = ndim
12 = nblocks
7 6 1 1 1 1 1 1 1 1 1 1 = blockstruct
1.0, 0.0, 0.0, 0.0, 0.0, 0.0, 0.0, 0.0, 0.0, 0.0, 0.0, 0.0, 0.0, 0.0, 0.0 = objcoeffs
0 1 1 1 17.296875459246795
0 1 1 2 -0.26247004130566015
0 1 1 3 -0.7682904991610343
0 1 1 4 0.3788316522069982
0 1 1 5 5.184439153559248
0 1 1 6 0.5788381287646254
0 1 1 7 -0.44363884742798665
0 1 2 2 -1.0
0 1 3 3 -1.0
0 1 4 4 -1.0
0 1 5 5 -1.0
0 1 6 6 -1.0
0 1 7 7 -1.0
0 2 1 1 1e-06
0 2 2 2 1e-06
0 2 3 3 1e-06
0 2 4 4 1e-06
0 2 5 5 1e-06
0 2 6 6 1e-06
0 3 1 1 1e-06
0 4 1 1 1e-06
0 5 1 1 1e-06
0 6 1 1 1e-06
0 7 1 1 1e-06
0 8 1 1 1e-06
0 9 1 1 1e-06
0 10 1 1 1e-06
0 11 1 1 1e-06
0 12 1 1 -0.099999
1 1 1 1 1.0
2 1 1 2 -113.29495607359601
2 2 3 3 1.0
3 1 1 2 -42.13191516412897
3 1 1 3 -494.0014083611189
3 2 2 6 1.0
3 2 3 5 -1.0
3 6 1 1 1.0
3 7 1 1 -1.0
4 1 1 2 457.8103370721997
4 1 1 3 -104.61372147820863
4 1 1 4 349.42671723142416
4 2 1 6 -1.0
4 2 3 4 1.0
4 8 1 1 1.0
4 9 1 1 -1.0
5 1 1 2 -0.37748938597233983
5 1 1 3 -1.5119169892687476
5 1 1 4 -1.2096190487868075
5 1 1 5 82.4453048345462
5 4 1 1 1.0
6 1 1 2 -0.19480601735871983
6 1 1 3 -11.966823779986107
6 1 1 4 -2.2101204219599806
6 1 1 5 64.58093308312941
6 1 1 6 42.3766663593516
6 5 1 1 1.0
7 1 1 2 -0.23614758856221507
7 1 1 3 69.54213666780821
7 1 1 4 -11.981911021019059
7 1 1 5 -0.01664230607873607
7 1 1 6 1.6556288719569183
7 1 1 7 33.647200611838734
8 2 1 1 1.0
9 2 1 2 1.0
10 2 1 3 1.0
11 2 2 2 1.0
12 2 2 3 1.0
13 2 1 5 1.0
13 2 2 4 -1.0
13 10 1 1 1.0
13 11 1 1 -1.0
14 2 4 4 1.0
14 2 5 5 1.0
14 2 6 6 1.0
14 6 1 1 0.01
14 7 1 1 0.01
14 8 1 1 0.2
14 9 1 1 0.02
14 10 1 1 0.01
14 11 1 1 0.01
14 12 1 1 -1.0
15 2 3 3 -1.0
15 3 1 1 1.0
